32	0

0	1	2
8	1	3
1	1	4
6	2	5	6
10	2	7	8
2	2	7	8
1	2	9	10
7	2	9	10
2	1	11
6	1	13
2	1	12
1	1	13
9	1	14
8	2	15	16
3	1	17
9	1	17
5	1	18
1	1	19
5	2	20	21
9	3	22	23	25
10	2	22	23
2	2	24	26
2	2	24	26
5	1	28
5	1	26
1	1	27
8	1	28
5	3	29	30	31
3	1	32
7	1	32
9	1	32
0	0
